c ---- [ banner ] ------------------------------------------------------------
c
c Kissat SAT Solver
c 
c Copyright (c) 2021-2024 Armin Biere University of Freiburg
c Copyright (c) 2019-2021 Armin Biere Johannes Kepler University Linz
c 
c Version 4.0.1 43f02cf3e992cb44653b35e5cb26f93281552ae0
c gcc (Ubuntu 13.2.0-23ubuntu4) 13.2.0 -W -Wall -O3 -DNDEBUG
c Thu Sep 12 12:27:46 CEST 2024 Linux abryzen9 6.8.0-41-generic x86_64
c
c ---- [ parsing ] -----------------------------------------------------------
c
c opened and reading DIMACS file:
c
c   /data/artifact/AMulet2.0_artifact/exp4/cnf_mfs_64/64_64_U1_WT_KS_Multgen_mfs.cnf
c
c parsed 'p cnf 36588 142427' header
c closing input after reading 2774176 bytes (3 MB)
c finished parsing after 0.02 seconds
c
c ---- [ options ] -----------------------------------------------------------
c
c --stable=0                       (different from default '1')
c
c ---- [ solving ] -----------------------------------------------------------
c
c  seconds switched rate     size/glue tier1  binary           remaining
c         MB reductions conflicts size  tier2     irredundant
c          level restarts redundant glue  trail           variables
c
c *  0.02 11 0 0 0  0 0   0   0 0.0 0 0 0 0 0% 29492 112933 36585 100%
c (  0.04 13 0 0 0  0 0   0   0 0.0 0 0 0 0 0% 29492 112933 36585 100%
c .  0.04 13 0 0 0  0 0   0   0 0.0 0 0 0 0 0% 29488 112933 36585 100%
c c  0.13 22 0 0 0  0 0   0   0 0.0 0 0 0 0 0% 36713 98701 32972 90%
c d  0.13 22 0 0 0  0 0   0   0 0.0 0 0 0 0 0% 29487 98701 32972 90%
c =  0.20 22 0 0 0  0 0   0   0 0.0 0 0 0 0 0% 29853 98701 32717 89%
c d  0.20 22 0 0 0  0 0   0   0 0.0 0 0 0 0 0% 29343 98701 32717 89%
c f  0.32 20 0 0 0  0 0   0   0 0.0 0 0 0 0 0% 32392 93825 34540 94%
c e  0.47 28 0 0 0  0 0   0   0 0.0 0 0 0 0 0% 10563 107964 23299 64%
c )  0.47 28 0 0 0  0 0   0   0 0.0 0 0 0 0 0% 10563 107964 23299 64%
c {  0.50 28 0 0 0  0 0   0   0 0.0 0 0 2 6 0% 10563 107964 23299 64%
c -  0.59 28 162 0 1 188 18 1000 726 1.8 6 4 2 5 17% 10658 107959 23299 64%
c -  0.97 28 155 0 2 432 29 2000 1477 3.1 13 4 2 6 21% 10711 107941 23299 64%
c c  1.25 22 158 0 2 567 34 2503 1903 3.8 18 5 2 6 22% 10750 107921 23292 64%
c d  1.26 22 158 0 2 567 34 2503 1903 3.8 18 5 2 6 22% 10736 107921 23292 64%
c u  1.28 22 158 0 2 567 34 2503 1508 3.8 18 5 2 6 22% 10749 107921 23292 64%
c v  1.30 22 158 0 2 567 34 2503 1225 3.8 18 5 2 6 22% 10750 107921 23292 64%
c w  1.35 24 158 0 2 567 34 2503 1223 3.8 18 5 2 6 22% 10750 107921 23292 64%
c x  1.37 24 158 0 2 567 34 2503 1223 3.8 18 5 2 6 22% 10838 107745 23292 64%
c =  1.45 24 158 0 2 567 34 2503 1223 3.8 18 5 2 6 22% 11138 107745 23142 63%
c
c  seconds   switched   rate       size/glue tier1    binary           remaining
c         MB  reductions conflicts       size  tier2      irredundant
c           level restarts    redundant    glue   trail           variables
c
c d  1.46 24 158 0 2 567 34 2503 1216 3.8 18 5 2 6 22% 10834 107745 23141 63%
c t  1.47 24 158 0 2 567 34 2503 1216 3.8 18 5 2 6 22% 10832 107745 23141 63%
c f  1.51 26 158 0 2 567 34 2503 1216 3.8 18 5 2 6 22% 11636 106235 23842 65%
c u  1.54 26 158 0 2 567 34 2503 1133 3.8 18 5 2 6 22% 11638 106235 23842 65%
c v  1.56 26 158 0 2 567 34 2503 1087 3.8 18 5 2 6 22% 11638 106235 23842 65%
c w  1.60 26 158 0 2 567 34 2503 1042 3.8 18 5 2 6 22% 11638 106235 23842 65%
c x  1.62 26 158 0 2 567 34 2503 1042 3.8 18 5 2 6 22% 11638 106147 23842 65%
c =  1.71 26 158 0 2 567 34 2503 1042 3.8 18 5 2 6 22% 12000 106147 23661 65%
c d  1.72 26 158 0 2 567 34 2503 1042 3.8 18 5 2 6 22% 11578 106147 23661 65%
c f  1.77 26 158 0 2 567 34 2503 1042 3.8 18 5 2 6 22% 12007 105502 23875 65%
c -  2.12 26 230 0 3 743 40 3415 1604 4.0 20 5 2 6 23% 12032 105501 23875 65%
c -  2.78 26 245 0 4 1030 42 5149 2708 4.4 24 6 2 7 25% 12099 105498 23875 65%
c -  3.29 26 317 0 5 1184 42 7149 3841 4.3 25 6 2 7 25% 12198 105485 23875 65%
c c  3.50 26 313 0 5 1236 42 7709 4273 4.4 25 6 2 7 24% 12233 105370 23835 65%
c d  3.51 26 313 0 5 1236 42 7709 4232 4.4 25 6 2 7 24% 12151 105370 23834 65%
c u  3.54 26 313 0 5 1236 42 7709 3256 4.4 25 6 2 7 24% 12165 105370 23834 65%
c v  3.57 26 313 0 5 1236 42 7709 2826 4.4 25 6 2 7 24% 12167 105370 23834 65%
c w  3.63 26 313 0 5 1236 42 7709 2814 4.4 25 6 2 7 24% 12167 105370 23834 65%
c =  3.78 26 313 0 5 1236 42 7709 2814 4.4 25 6 2 7 24% 13201 105370 23317 64%
c d  3.79 26 313 0 5 1236 42 7709 2790 4.4 25 6 2 7 24% 12054 105370 23316 64%
c
c  seconds   switched    rate       size/glue tier1    binary           remaining
c         MB  reductions  conflicts       size  tier2      irredundant
c           level  restarts    redundant    glue   trail           variables
c
c t  3.81 26 313 0 5 1236 42 7709 2790 4.4 25 6 2 7 24% 12039 105370 23316 64%
c f  3.86 26 313 0 5 1236 42 7709 2790 4.4 25 6 2 7 24% 14284 101988 24437 67%
c u  3.96 26 313 0 5 1236 42 7709 2565 4.4 25 6 2 7 24% 14286 101988 24437 67%
c v  3.99 26 313 0 5 1236 42 7709 2480 4.4 25 6 2 7 24% 14286 101988 24437 67%
c w  4.03 26 313 0 5 1236 42 7709 2472 4.4 25 6 2 7 24% 14286 101988 24437 67%
c x  4.08 26 313 0 5 1236 42 7709 2471 4.4 25 6 2 7 24% 14301 96930 24437 67%
c =  4.24 26 313 0 5 1236 42 7709 2471 4.4 25 6 2 7 24% 14835 96930 24170 66%
c d  4.25 26 313 0 5 1236 42 7709 2466 4.4 25 6 2 7 24% 14237 96930 24170 66%
c t  4.27 26 313 0 5 1236 42 7709 2466 4.4 25 6 2 7 24% 14219 96930 24170 66%
c f  4.34 26 313 0 5 1236 42 7709 2466 4.4 25 6 2 7 24% 14232 96910 24177 66%
c -  4.75 26 331 0 6 1372 41 9385 3415 4.6 26 6 2 7 24% 14328 96896 24177 66%
c o  5.00 26 331 0 6 1466 41 10262 4116 4.6 26 6 2 7 24% 14413 96891 24177 66%
c -  5.40 26 342 0 7 1620 40 11835 4824 4.6 26 6 2 7 23% 14488 96888 24177 66%
c s  5.68 26 341 0 7 1709 40 12512 5373 4.6 26 6 2 7 24% 14518 95606 24177 66%
c e  5.81 26 341 0 7 1709 40 12512 5373 4.6 26 6 2 7 24% 12056 97310 22421 61%
c s  5.83 26 341 0 7 1709 40 12512 5373 4.6 26 6 2 7 24% 12065 95919 22421 61%
c e  5.85 26 341 0 7 1709 40 12512 5373 4.6 26 6 2 7 24% 12060 95924 22418 61%
c ^  5.85 26 341 0 7 1709 40 12512 5373 4.6 26 6 2 7 24% 12060 95924 22418 61%
c -  6.28 26 345 0 8 1884 38 14480 5739 4.3 25 6 2 7 23% 12142 95922 22418 61%
c d  6.49 26 341 0 8 1976 37 15788 6870 4.2 24 6 2 7 23% 11878 95907 22217 61%
c
c  seconds   switched    rate        size/glue tier1    binary          remaining
c         MB  reductions   conflicts       size  tier2      irredundant
c           level  restarts     redundant    glue   trail          variables
c
c u  6.54 26 341 0 8 1976 37 15788 5399 4.2 24 6 2 7 23% 11897 95907 22217 61%
c v  6.58 26 341 0 8 1976 37 15788 4712 4.2 24 6 2 7 23% 11900 95907 22217 61%
c w  6.62 26 341 0 8 1976 37 15788 4682 4.2 24 6 2 7 23% 11900 95907 22217 61%
c x  6.67 26 341 0 8 1976 37 15788 4682 4.2 24 6 2 7 23% 11954 93699 22217 61%
c =  6.87 26 341 0 8 1976 37 15788 4682 4.2 24 6 2 7 23% 13692 93699 21348 58%
c d  6.88 26 341 0 8 1976 37 15788 4637 4.2 24 6 2 7 23% 11543 93699 21347 58%
c t  6.89 26 341 0 8 1976 37 15788 4637 4.2 24 6 2 7 23% 11504 93699 21347 58%
c f  6.95 26 341 0 8 1976 37 15788 4637 4.2 24 6 2 7 23% 11508 93676 21354 58%
c u  7.07 26 341 0 8 1976 37 15788 4352 4.2 24 6 2 7 23% 11515 93676 21354 58%
c v  7.10 26 341 0 8 1976 37 15788 4249 4.2 24 6 2 7 23% 11515 93676 21354 58%
c w  7.14 26 341 0 8 1976 37 15788 4237 4.2 24 6 2 7 23% 11515 93676 21354 58%
c x  7.20 26 341 0 8 1976 37 15788 4235 4.2 24 6 2 7 23% 11535 91848 21354 58%
c =  7.40 26 341 0 8 1976 37 15788 4235 4.2 24 6 2 7 23% 12619 91848 20812 57%
c d  7.41 26 341 0 8 1976 37 15788 4188 4.2 24 6 2 7 23% 11306 91848 20812 57%
c t  7.43 26 341 0 8 1976 37 15788 4188 4.2 24 6 2 7 23% 11303 91848 20812 57%
c f  7.45 26 341 0 8 1976 37 15788 4188 4.2 24 6 2 7 23% 11306 91839 20815 57%
c -  7.67 26 318 0 9 2058 35 17310 4905 4.0 22 6 2 7 22% 11351 91839 20815 57%
c o  8.12 26 304 0 9 2201 33 20298 7238 3.9 22 5 2 7 22% 11455 91839 20815 57%
c -  8.13 26 304 0 10 2203 33 20311 6593 3.9 22 6 2 6 22% 11455 91839 20815 57%
c -  9.17 26 291 0 11 2614 33 23473 8423 3.9 23 6 2 6 23% 11504 91839 20815 57%
c
c  seconds   switched     rate        size/glue tier1    binary          remaining
c         MB   reductions   conflicts       size  tier2      irredundant
c           level   restarts     redundant    glue   trail          variables
c
c s  9.58 26 294 0 11 2776 33 25014 9741 3.8 23 6 2 6 23% 11554 90913 20815 57%
c e  9.73 26 294 0 11 2776 33 25014 9741 3.8 23 6 2 6 23% 9992 94666 17811 49%
c 2  9.73 26 294 0 11 2776 33 25014 9741 3.8 23 6 2 6 23% 9990 94666 17811 49%
c s  9.76 26 294 0 11 2776 33 25014 9741 3.8 23 6 2 6 23% 10034 90995 17811 49%
c e  9.81 26 294 0 11 2776 33 25014 9741 3.8 23 6 2 6 23% 10012 91029 17793 49%
c ^  9.81 26 294 0 11 2776 33 25014 9741 3.8 23 6 2 6 23% 10012 91029 17793 49%
c - 10.23 26 281 0 12 2913 32 26790 8114 3.7 22 6 2 6 23% 10036 91028 17793 49%
c d 10.27 26 281 0 12 2931 32 26915 8225 3.7 22 6 2 6 23% 9935 91028 17728 48%
c u 10.33 26 281 0 12 2931 32 26915 6716 3.7 22 6 2 6 23% 9944 91028 17728 48%
c v 10.39 26 281 0 12 2931 32 26915 5783 3.7 22 6 2 6 23% 9944 91028 17728 48%
c w 10.40 26 281 0 12 2931 32 26915 5773 3.7 22 6 2 6 23% 9944 91028 17728 48%
c x 10.51 26 281 0 12 2931 32 26915 5771 3.7 22 6 2 6 23% 9983 88560 17728 48%
c = 10.78 26 281 0 12 2931 32 26915 5771 3.7 22 6 2 6 23% 12263 88560 16588 45%
c d 10.79 26 281 0 12 2931 32 26915 5597 3.7 22 6 2 6 23% 9876 88560 16587 45%
c t 10.81 26 281 0 12 2931 32 26915 5597 3.7 22 6 2 6 23% 9825 88560 16587 45%
c f 10.90 26 281 0 12 2931 32 26915 5597 3.7 22 6 2 6 23% 9845 88415 16616 45%
c u 10.95 26 281 0 12 2931 32 26915 5140 3.7 22 6 2 6 23% 9846 88415 16616 45%
c v 10.98 26 281 0 12 2931 32 26915 5026 3.7 22 6 2 6 23% 9846 88415 16616 45%
c w 10.99 26 281 0 12 2931 32 26915 5021 3.7 22 6 2 6 23% 9846 88415 16616 45%
c x 11.11 26 281 0 12 2931 32 26915 5021 3.7 22 6 2 6 23% 9853 80073 16616 45%
c
c  seconds   switched     rate        size/glue tier1    binary          remaining
c         MB   reductions   conflicts       size  tier2      irredundant
c           level   restarts     redundant    glue   trail          variables
c
c = 11.36 26 281 0 12 2931 32 26915 5021 3.7 22 6 2 6 23% 10897 80073 16094 44%
c d 11.37 26 281 0 12 2931 32 26915 4967 3.7 22 6 2 6 23% 9824 80073 16094 44%
c t 11.39 26 281 0 12 2931 32 26915 4967 3.7 22 6 2 6 23% 9810 80073 16094 44%
c f 11.42 26 281 0 12 2931 32 26915 4967 3.7 22 6 2 6 23% 9814 80053 16099 44%
c - 12.07 26 260 0 13 3166 30 30254 7198 3.4 20 6 2 7 24% 9831 80053 16099 44%
c - 12.84 26 245 0 14 3466 29 33859 9384 3.3 20 6 2 7 24% 9865 80053 16099 44%
c - 13.71 26 233 0 15 3879 28 37601 11183 3.2 20 6 2 7 25% 9911 80052 16099 44%
c o 14.06 26 233 0 15 4030 27 40314 13556 3.2 20 6 2 7 25% 9978 80050 16099 44%
c c 14.32 26 231 0 15 4121 27 41246 14375 3.2 19 6 2 7 25% 10056 79745 16027 44%
c d 14.33 26 231 0 15 4121 27 41246 14252 3.2 19 6 2 7 25% 9876 79745 16003 44%
c u 14.39 26 231 0 15 4121 27 41246 12168 3.2 19 6 2 7 25% 9892 79745 16003 44%
c v 14.48 26 231 0 15 4121 27 41246 10822 3.2 19 6 2 7 25% 9893 79745 16003 44%
c w 14.53 26 231 0 15 4121 27 41246 10821 3.2 19 6 2 7 25% 9893 79745 16003 44%
c x 14.62 27 231 0 15 4121 27 41246 10820 3.2 19 6 2 7 25% 9893 76887 16003 44%
c = 14.90 27 231 0 15 4121 27 41246 10820 3.2 19 6 2 7 25% 10797 76886 15551 43%
c d 14.91 27 231 0 15 4121 27 41246 10616 3.2 19 6 2 7 25% 9816 76886 15550 43%
c t 14.93 27 231 0 15 4121 27 41246 10616 3.2 19 6 2 7 25% 9796 76886 15550 43%
c u 15.02 27 231 0 15 4121 27 41246 9974 3.2 19 6 2 7 25% 9800 76886 15550 43%
c v 15.09 27 231 0 15 4121 27 41246 9399 3.2 19 6 2 7 25% 9801 76886 15550 43%
c w 15.18 27 231 0 15 4121 27 41246 9367 3.2 19 6 2 7 25% 9801 76886 15550 43%
c
c  seconds   switched     rate        size/glue tier1    binary         remaining
c         MB   reductions   conflicts       size  tier2     irredundant
c           level   restarts     redundant    glue   trail         variables
c
c x 15.28 27 231 0 15 4121 27 41246 9365 3.2 19 6 2 7 25% 9805 74212 15550 43%
c = 15.55 27 231 0 15 4121 27 41246 9365 3.2 19 6 2 7 25% 10147 74212 15379 42%
c d 15.56 27 231 0 15 4121 27 41246 9320 3.2 19 6 2 7 25% 9793 74212 15379 42%
c t 15.58 27 231 0 15 4121 27 41246 9320 3.2 19 6 2 7 25% 9776 74212 15379 42%
c f 15.60 27 231 0 15 4121 27 41246 9320 3.2 19 6 2 7 25% 9777 74204 15381 42%
c - 15.65 27 230 0 16 4140 27 41474 8389 3.2 19 6 2 6 25% 9780 74204 15381 42%
c - 16.51 27 222 0 17 4532 27 45474 10683 3.2 19 6 2 6 25% 9811 74204 15381 42%
c - 17.30 27 214 0 18 4916 26 49598 12957 3.1 19 6 2 6 25% 9858 74202 15381 42%
c s 17.91 27 208 0 18 5201 26 52114 15243 3.1 19 6 2 6 25% 9877 72661 15381 42%
c e 18.03 27 208 0 18 5201 26 52114 15243 3.1 19 6 2 6 25% 8252 75655 14263 39%
c s 18.04 27 208 0 18 5201 26 52114 15243 3.1 19 6 2 6 25% 8271 75268 14263 39%
c e 18.05 27 208 0 18 5201 26 52114 15243 3.1 19 6 2 6 25% 8245 75309 14246 39%
c ^ 18.05 27 208 0 18 5201 26 52114 15243 3.1 19 6 2 6 25% 8245 75309 14246 39%
c - 18.66 27 205 0 19 5490 26 53840 12789 3.0 19 6 2 6 25% 8247 75309 14246 39%
c - 19.64 27 198 0 20 5950 25 58198 14813 2.9 19 6 2 6 26% 8279 75309 14246 39%
c c 19.91 27 197 0 20 6057 25 58890 15422 2.9 19 6 2 6 26% 8323 75150 14216 39%
c d 19.92 27 197 0 20 6057 25 58890 15352 2.9 19 6 2 6 26% 8263 75150 14216 39%
c u 20.00 27 197 0 20 6057 25 58890 12883 2.9 19 6 2 6 26% 8279 75150 14216 39%
c v 20.08 27 197 0 20 6057 25 58890 11215 2.9 19 6 2 6 26% 8281 75150 14216 39%
c w 20.14 27 197 0 20 6057 25 58890 11180 2.9 19 6 2 6 26% 8281 75150 14216 39%
c
c  seconds   switched     rate         size/glue tier1    binary         remaining
c         MB   reductions   conflicts        size  tier2     irredundant
c           level   restarts      redundant    glue   trail         variables
c
c x 20.27 27 197 0 20 6057 25 58890 11180 2.9 19 6 2 6 26% 8285 74878 14216 39%
c = 20.68 27 197 0 20 6057 25 58890 11180 2.9 19 6 2 6 26% 8453 74878 14132 39%
c d 20.69 27 197 0 20 6057 25 58890 11145 2.9 19 6 2 6 26% 8267 74878 14130 39%
c t 20.71 27 197 0 20 6057 25 58890 11145 2.9 19 6 2 6 26% 8241 74878 14130 39%
c f 20.77 27 197 0 20 6057 25 58890 11145 2.9 19 6 2 6 26% 8259 74790 14143 39%
c c 20.83 27 197 0 20 6057 25 58890 11136 2.9 19 6 2 6 26% 8266 74766 14140 39%
c d 20.84 27 197 0 20 6057 25 58890 11136 2.9 19 6 2 6 26% 8260 74766 14140 39%
c u 20.91 27 197 0 20 6057 25 58890 10735 2.9 19 6 2 6 26% 8264 74766 14140 39%
c v 20.96 27 197 0 20 6057 25 58890 10488 2.9 19 6 2 6 26% 8264 74766 14140 39%
c w 21.01 27 197 0 20 6057 25 58890 10466 2.9 19 6 2 6 26% 8264 74766 14140 39%
c = 21.15 27 197 0 20 6057 25 58890 10466 2.9 19 6 2 6 26% 8318 74766 14113 39%
c d 21.16 27 197 0 20 6057 25 58890 10454 2.9 19 6 2 6 26% 8262 74766 14113 39%
c t 21.18 27 197 0 20 6057 25 58890 10454 2.9 19 6 2 6 26% 8254 74766 14113 39%
c - 21.93 27 190 0 21 6384 25 62673 12409 2.9 18 6 2 6 26% 8274 74766 14113 39%
c - 22.99 27 183 0 22 6902 24 67258 14897 2.8 18 6 2 6 26% 8296 74763 14113 39%
c o 23.53 27 183 0 22 7101 24 70411 17601 2.8 18 6 2 6 26% 8335 74762 14113 39%
c - 23.89 27 180 0 23 7274 24 71949 16976 2.8 18 6 2 6 25% 8344 74761 14113 39%
c - 25.11 27 178 0 24 7953 24 76745 18765 2.8 18 7 2 6 26% 8391 74758 14113 39%
c d 25.98 27 177 0 24 8340 24 79965 21405 2.8 19 7 2 6 26% 8323 74758 14053 38%
c u 26.11 27 177 0 24 8340 24 79965 17965 2.8 19 7 2 6 26% 8352 74758 14053 38%
c
c  seconds   switched     rate         size/glue tier1    binary         remaining
c         MB   reductions   conflicts        size  tier2     irredundant
c           level   restarts      redundant    glue   trail         variables
c
c v 26.22 27 177 0 24 8340 24 79965 15920 2.8 19 7 2 6 26% 8357 74758 14053 38%
c w 26.30 27 177 0 24 8340 24 79965 15911 2.8 19 7 2 6 26% 8357 74758 14053 38%
c x 26.40 27 177 0 24 8340 24 79965 15905 2.8 19 7 2 6 26% 8359 73801 14053 38%
c = 26.89 27 177 0 24 8340 24 79965 15905 2.8 19 7 2 6 26% 8897 73793 13784 38%
c d 26.90 27 177 0 24 8340 24 79965 15649 2.8 19 7 2 6 26% 8288 73793 13783 38%
c t 26.92 27 177 0 24 8340 24 79965 15649 2.8 19 7 2 6 26% 8255 73793 13783 38%
c c 27.01 27 177 0 24 8340 24 79965 15648 2.8 19 7 2 6 26% 8262 73773 13780 38%
c d 27.01 27 177 0 24 8340 24 79965 15647 2.8 19 7 2 6 26% 8256 73773 13780 38%
c u 27.10 27 177 0 24 8340 24 79965 14807 2.8 19 7 2 6 26% 8261 73773 13780 38%
c v 27.16 27 177 0 24 8340 24 79965 14455 2.8 19 7 2 6 26% 8262 73773 13780 38%
c w 27.33 27 177 0 24 8340 24 79965 14397 2.8 19 7 2 6 26% 8262 73773 13780 38%
c x 27.47 27 177 0 24 8340 24 79965 14388 2.8 19 7 2 6 26% 8282 72070 13780 38%
c = 27.95 27 177 0 24 8340 24 79965 14388 2.8 19 7 2 6 26% 8798 72070 13522 37%
c d 27.96 27 177 0 24 8340 24 79965 14297 2.8 19 7 2 6 26% 8267 72070 13522 37%
c t 27.97 27 177 0 24 8340 24 79965 14297 2.8 19 7 2 6 26% 8218 72070 13522 37%
c f 28.00 27 177 0 24 8340 24 79965 14297 2.8 19 7 2 6 26% 8219 72054 13525 37%
c - 28.40 27 175 0 25 8497 24 81644 14118 2.8 18 7 2 5 26% 8224 72054 13525 37%
c - 29.49 27 169 0 26 9027 24 86647 16669 2.7 18 7 2 5 26% 8258 72050 13525 37%
c - 30.60 27 164 0 27 9576 23 91746 19054 2.7 18 7 2 5 26% 8277 72050 13525 37%
c s 31.63 27 162 0 27 10074 23 95812 22795 2.7 18 7 2 5 26% 8297 70677 13525 37%
c
c  seconds   switched      rate         size/glue tier1    binary         remaining
c         MB   reductions    conflicts        size  tier2     irredundant
c           level   restarts       redundant    glue   trail         variables
c
c e 31.76 27 162 0 27 10074 23 95812 22795 2.7 18 7 2 5 26% 5611 77934 12067 33%
c 2 31.76 27 162 0 27 10074 23 95812 22795 2.7 18 7 2 5 26% 5609 77934 12067 33%
c s 31.78 27 162 0 27 10074 23 95812 22795 2.7 18 7 2 5 26% 5634 77425 12067 33%
c e 31.80 27 162 0 27 10074 23 95812 22795 2.7 18 7 2 5 26% 5587 77595 12023 33%
c ^ 31.80 27 162 0 27 10074 23 95812 22795 2.7 18 7 2 5 26% 5587 77595 12023 33%
c - 32.05 27 161 0 28 10162 23 96943 14862 2.7 18 7 1 5 26% 5590 77595 12023 33%
c - 33.09 27 161 0 29 10626 23 102234 16465 2.7 19 7 1 5 26% 5609 77594 12023 33%
c d 33.62 27 161 0 29 10868 23 104608 18613 2.7 19 7 1 5 26% 5594 77594 12011 33%
c u 33.69 27 161 0 29 10868 23 104608 16765 2.7 19 7 1 5 26% 5598 77594 12011 33%
c v 33.79 27 161 0 29 10868 23 104608 14106 2.7 19 7 1 5 26% 5604 77594 12011 33%
c w 33.98 27 161 0 29 10868 23 104608 13991 2.7 19 7 1 5 26% 5604 77594 12011 33%
c x 34.10 27 161 0 29 10868 23 104608 13990 2.7 19 7 1 5 26% 5611 77415 12011 33%
c = 34.55 27 161 0 29 10868 23 104608 13990 2.7 19 7 1 5 26% 5789 77415 11922 33%
c d 34.56 27 161 0 29 10868 23 104608 13932 2.7 19 7 1 5 26% 5606 77415 11922 33%
c t 34.57 27 161 0 29 10868 23 104608 13932 2.7 19 7 1 5 26% 5585 77415 11922 33%
c f 34.62 27 161 0 29 10868 23 104608 13932 2.7 19 7 1 5 26% 5606 77291 11933 33%
c u 34.66 27 161 0 29 10868 23 104608 13542 2.7 19 7 1 5 26% 5609 77291 11933 33%
c v 34.70 27 161 0 29 10868 23 104608 13081 2.7 19 7 1 5 26% 5609 77291 11933 33%
c w 34.82 27 161 0 29 10868 23 104608 12833 2.7 19 7 1 5 26% 5609 77291 11933 33%
c = 35.21 27 161 0 29 10868 23 104608 12833 2.7 19 7 1 5 26% 5625 77291 11925 33%
c
c  seconds   switched      rate          size/glue tier1    binary         remaining
c         MB   reductions    conflicts         size  tier2     irredundant
c           level   restarts        redundant    glue   trail         variables
c
c d 35.22 27 161 0 29 10868 23 104608 12822 2.7 19 7 1 5 26% 5605 77291 11925 33%
c t 35.22 27 161 0 29 10868 23 104608 12822 2.7 19 7 1 5 26% 5604 77291 11925 33%
c - 35.56 27 158 0 30 11017 23 107620 13046 2.6 18 7 1 5 26% 5614 77291 11925 33%
c o 35.85 27 156 0 30 11206 22 110414 15610 2.6 18 7 1 5 26% 5639 77290 11925 33%
c - 36.15 27 155 0 31 11418 22 113097 15484 2.6 18 7 1 5 26% 5650 77290 11925 33%
c - 37.04 27 152 0 32 12049 22 118666 17657 2.6 19 7 1 5 26% 5667 77289 11925 33%
c - 37.62 27 154 0 33 12442 22 124323 19176 2.6 19 7 1 5 26% 5705 77289 11925 33%
c - 38.33 27 151 0 34 12887 22 130067 20456 2.7 19 7 1 5 26% 5730 77289 11925 33%
c c 38.85 27 151 0 34 13237 22 132867 23117 2.7 20 7 1 5 26% 5759 77098 11884 32%
c d 38.85 27 151 0 34 13237 22 132867 22998 2.7 20 7 1 5 26% 5677 77098 11884 32%
c u 38.90 27 151 0 34 13237 22 132867 20636 2.7 20 7 1 5 26% 5701 77098 11884 32%
c v 38.97 27 151 0 34 13237 22 132867 17518 2.7 20 7 1 5 26% 5707 77098 11884 32%
c w 39.07 27 151 0 34 13237 22 132867 17488 2.7 20 7 1 5 26% 5707 77098 11884 32%
c x 39.13 27 151 0 34 13237 22 132867 17488 2.7 20 7 1 5 26% 5707 77086 11884 32%
c = 39.54 27 151 0 34 13237 22 132867 17488 2.7 20 7 1 5 26% 5743 77086 11866 32%
c d 39.55 27 151 0 34 13237 22 132867 17460 2.7 20 7 1 5 26% 5684 77086 11859 32%
c t 39.56 27 151 0 34 13237 22 132867 17460 2.7 20 7 1 5 26% 5677 77086 11859 32%
c f 39.57 27 151 0 34 13237 22 132867 17460 2.7 20 7 1 5 26% 5687 77028 11864 32%
c u 39.61 27 151 0 34 13237 22 132867 16942 2.7 20 7 1 5 26% 5691 77028 11864 32%
c v 39.66 27 151 0 34 13237 22 132867 16356 2.7 20 7 1 5 26% 5691 77028 11864 32%
c
c  seconds   switched      rate          size/glue tier1    binary         remaining
c         MB   reductions    conflicts         size  tier2     irredundant
c           level   restarts        redundant    glue   trail         variables
c
c w 39.84 27 151 0 34 13237 22 132867 15927 2.7 20 7 1 5 26% 5691 77028 11864 32%
c = 40.25 27 151 0 34 13237 22 132867 15927 2.7 20 7 1 5 26% 5725 77028 11847 32%
c d 40.26 27 151 0 34 13237 22 132867 15906 2.7 20 7 1 5 26% 5685 77028 11847 32%
c f 40.28 27 151 0 34 13237 22 132867 15906 2.7 20 7 1 5 26% 5687 77017 11848 32%
c - 40.61 27 149 0 35 13444 21 135897 16023 2.7 19 7 1 5 26% 5692 77015 11848 32%
c - 41.44 27 146 0 36 13992 21 141813 18516 2.6 20 7 1 5 26% 5704 77015 11848 32%
c - 42.19 27 147 0 37 14467 21 147813 20583 2.7 20 7 1 5 26% 5744 77015 11848 32%
c - 43.05 27 145 0 38 15034 21 153897 22260 2.7 20 8 1 5 26% 5763 77015 11848 32%
c s 43.70 27 146 0 38 15466 21 157916 26000 2.7 21 8 1 5 27% 5776 76315 11848 32%
c e 43.82 27 146 0 38 15466 21 157916 26000 2.7 21 8 1 5 27% 3275 89156 10169 28%
c s 43.85 27 146 0 38 15466 21 157916 26000 2.7 21 8 1 5 27% 3291 87767 10169 28%
c e 43.87 27 146 0 38 15466 21 157916 26000 2.7 21 8 1 5 27% 3234 87983 10126 28%
c ^ 43.87 27 146 0 38 15466 21 157916 26000 2.7 21 8 1 5 27% 3234 87983 10126 28%
c - 44.23 27 146 0 39 15730 21 160061 17030 2.7 21 8 1 5 27% 3235 87983 10126 28%
c o 44.28 27 145 0 39 15747 21 160521 17464 2.7 21 8 1 5 27% 3235 87983 10126 28%
c c 44.76 27 144 0 39 16089 21 164860 21172 2.7 21 8 1 5 26% 3289 87840 10100 28%
c d 44.76 27 144 0 39 16089 21 164860 21000 2.7 21 8 1 5 26% 3237 87840 10100 28%
c u 44.81 27 144 0 39 16089 21 164860 18751 2.7 21 8 1 5 26% 3247 87840 10100 28%
c v 44.87 27 144 0 39 16089 21 164860 15700 2.7 21 8 1 5 26% 3249 87840 10100 28%
c w 45.08 27 144 0 39 16089 21 164860 15126 2.7 21 8 1 5 26% 3249 87840 10100 28%
c
c  seconds   switched      rate          size/glue tier1    binary         remaining
c         MB   reductions    conflicts         size  tier2     irredundant
c           level   restarts        redundant    glue   trail         variables
c
c = 45.56 27 144 0 39 16089 21 164860 15126 2.7 21 8 1 5 26% 3359 87840 10045 27%
c d 45.57 27 144 0 39 16089 21 164860 15059 2.7 21 8 1 5 26% 3232 87840 10044 27%
c t 45.58 27 144 0 39 16089 21 164860 15059 2.7 21 8 1 5 26% 3212 87840 10044 27%
c f 45.68 27 144 0 39 16089 21 164860 15059 2.7 21 8 1 5 26% 3238 87536 10059 27%
c u 45.75 27 144 0 39 16089 21 164860 14566 2.7 21 8 1 5 26% 3240 87536 10059 27%
c v 45.79 27 144 0 39 16089 21 164860 13964 2.7 21 8 1 5 26% 3241 87536 10059 27%
c w 45.95 27 144 0 39 16089 21 164860 13834 2.7 21 8 1 5 26% 3241 87536 10059 27%
c x 46.04 27 144 0 39 16089 21 164860 13822 2.7 21 8 1 5 26% 3274 86071 10059 27%
c = 46.53 27 144 0 39 16089 21 164860 13822 2.7 21 8 1 5 26% 3326 86071 10033 27%
c d 46.53 27 144 0 39 16089 21 164860 13808 2.7 21 8 1 5 26% 3272 86071 10033 27%
c t 46.54 27 144 0 39 16089 21 164860 13808 2.7 21 8 1 5 26% 3259 86071 10033 27%
c - 46.70 27 144 0 40 16187 21 166305 13161 2.7 21 8 1 5 26% 3263 86071 10033 27%
c - 47.33 27 142 0 41 16574 20 172629 16334 2.7 20 8 1 5 26% 3275 86070 10033 27%
c - 48.17 27 140 0 42 17190 20 179033 19134 2.6 20 8 1 5 26% 3285 86068 10033 27%
c - 49.00 27 139 0 43 17797 20 185515 21172 2.6 21 8 1 5 26% 3293 86067 10033 27%
c - 49.77 27 138 0 44 18378 20 192072 22708 2.6 21 8 1 5 26% 3303 86064 10033 27%
c - 50.63 27 138 0 45 18985 20 198706 24027 2.6 21 8 1 4 26% 3323 86062 10033 27%
c d 50.93 27 138 0 45 19162 20 200651 25812 2.6 21 8 1 4 27% 3303 86062 10022 27%
c u 50.99 27 138 0 45 19162 20 200651 23175 2.6 21 8 1 4 27% 3322 86062 10022 27%
c v 51.06 27 138 0 45 19162 20 200651 19588 2.6 21 8 1 4 27% 3333 86062 10022 27%
c
c  seconds   switched      rate          size/glue tier1    binary         remaining
c         MB   reductions    conflicts         size  tier2     irredundant
c           level   restarts        redundant    glue   trail         variables
c
c w 51.20 27 138 0 45 19162 20 200651 18557 2.6 21 8 1 4 27% 3334 86062 10022 27%
c = 51.72 27 138 0 45 19162 20 200651 18557 2.6 21 8 1 4 27% 3376 86042 10001 27%
c d 51.73 27 138 0 45 19162 20 200651 18528 2.6 21 8 1 4 27% 3322 86042 10001 27%
c t 51.73 27 138 0 45 19162 20 200651 18528 2.6 21 8 1 4 27% 3299 86042 10001 27%
c u 51.83 27 138 0 45 19162 20 200651 17918 2.6 21 8 1 4 27% 3313 86042 10000 27%
c v 51.87 27 138 0 45 19162 20 200651 17304 2.6 21 8 1 4 27% 3313 86042 10000 27%
c w 51.99 27 138 0 45 19162 20 200651 17077 2.6 21 8 1 4 27% 3313 86042 10000 27%
c x 52.08 27 138 0 45 19162 20 200651 17077 2.6 21 8 1 4 27% 3313 86002 10000 27%
c = 52.60 27 138 0 45 19162 20 200651 17077 2.6 21 8 1 4 27% 3315 86002 9999 27%
c d 52.61 27 138 0 45 19162 20 200651 17073 2.6 21 8 1 4 27% 3313 86002 9999 27%
c t 52.61 27 138 0 45 19162 20 200651 17073 2.6 21 8 1 4 27% 3310 86002 9999 27%
c i 52.62 27 138 0 45 19162 20 200651 17073 2.6 21 8 1 4 27% 3310 86002 9999 27%
c - 53.27 27 137 0 46 19585 20 205415 18236 2.6 21 8 1 4 27% 3310 86000 9999 27%
c - 54.30 27 136 0 47 20319 20 212199 21121 2.6 22 8 1 4 27% 3317 85995 9999 27%
c i 55.00 27 135 0 47 20805 20 217536 26073 2.6 22 8 1 4 27% 3321 85995 9998 27%
c i 55.08 27 135 0 47 20860 20 218019 26517 2.6 22 8 1 4 27% 3323 85995 9996 27%
c - 55.23 27 135 0 48 20968 20 219054 23223 2.6 22 8 1 4 27% 3318 85995 9996 27%
c o 55.46 27 135 0 48 21124 20 220602 24664 2.6 22 8 1 4 27% 3319 85995 9996 27%
c - 56.21 27 133 0 49 21626 20 225982 24827 2.6 22 8 1 4 27% 3323 85995 9996 27%
c i 56.88 27 132 0 49 22083 20 230066 28674 2.7 22 8 1 4 27% 3328 85994 9995 27%
c
c  seconds   switched      rate          size/glue tier1    binary        remaining
c         MB   reductions    conflicts         size  tier2     irredundant
c           level   restarts        redundant    glue   trail        variables
c
c - 57.26 27 133 0 50 22339 19 232983 26205 2.7 22 8 1 4 27% 3334 85993 9995 27%
c i 57.29 27 133 0 50 22359 19 233227 26389 2.7 22 8 1 4 27% 3341 85993 9994 27%
c i 57.94 27 132 0 50 22785 19 238041 30844 2.7 22 8 1 4 27% 3346 85993 9992 27%
c i 58.02 27 132 0 50 22831 19 238938 31673 2.6 22 8 1 4 27% 3351 85993 9988 27%
c i 58.11 27 132 0 50 22880 19 239353 32072 2.7 23 8 1 4 27% 3352 85993 9986 27%
c 2 58.21 27 132 0 50 22959 19 240039 32703 2.6 23 9 1 4 27% 3354 85992 9983 27%
c s 58.22 27 132 0 50 22959 19 240039 32703 2.6 23 9 1 4 27% 3356 85308 9983 27%
c e 58.40 29 132 0 50 22959 19 240039 32703 2.6 23 9 1 4 27% 704 109128 8008 22%
c 2 58.40 29 132 0 50 22959 19 240039 32703 2.6 23 9 1 4 27% 702 109128 8008 22%
c s 58.45 29 132 0 50 22959 19 240039 32703 2.6 23 9 1 4 27% 726 106849 8008 22%
c e 58.49 29 132 0 50 22959 19 240039 32703 2.6 23 9 1 4 27% 695 107117 7984 22%
c ! 58.49 29 132 0 50 22959 19 240039 32703 2.6 23 9 1 4 27% 695 107117 7984 22%
c - 58.51 29 132 0 51 22960 19 240056 16832 2.6 23 9 1 4 27% 699 107117 7984 22%
c i 58.51 29 132 0 51 22961 19 240135 16871 2.6 23 9 1 4 27% 704 107117 7983 22%
c u 58.57 29 131 0 51 22963 19 240319 14648 2.6 23 9 1 4 27% 725 107107 7983 22%
c v 58.61 29 131 0 51 22963 19 240319 12360 2.6 23 9 1 4 27% 731 107107 7983 22%
c w 58.64 29 131 0 51 22963 19 240319 11911 2.6 23 9 1 4 27% 731 107107 7983 22%
c = 59.22 29 131 0 51 22963 19 240319 11911 2.6 23 9 1 4 27% 743 107056 7975 22%
c d 59.22 29 131 0 51 22963 19 240319 11890 2.6 23 9 1 4 27% 726 107056 7974 22%
c t 59.23 29 131 0 51 22963 19 240319 11890 2.6 23 9 1 4 27% 705 107056 7974 22%
c
c  seconds   switched      rate          size/glue tier1    binary         remaining
c         MB   reductions    conflicts         size  tier2     irredundant
c           level   restarts        redundant    glue   trail         variables
c
c f 59.38 29 131 0 51 22963 19 240319 11890 2.6 23 9 1 4 27% 1142 102478 8068 22%
c u 59.42 29 131 0 51 22963 19 240319 11652 2.6 23 9 1 4 27% 1143 102478 8068 22%
c v 59.45 29 131 0 51 22963 19 240319 11398 2.6 23 9 1 4 27% 1144 102478 8068 22%
c w 59.46 29 131 0 51 22963 19 240319 11327 2.6 23 9 1 4 27% 1144 102478 8068 22%
c = 60.06 29 131 0 51 22963 19 240319 11327 2.6 23 9 1 4 27% 1159 102380 8056 22%
c d 60.07 29 131 0 51 22963 19 240319 11300 2.6 23 9 1 4 27% 1145 102379 8056 22%
c t 60.08 29 131 0 51 22963 19 240319 11300 2.6 23 9 1 4 27% 1139 102379 8056 22%
c f 60.18 29 131 0 51 22963 19 240319 11300 2.6 23 9 1 4 27% 1626 101441 8074 22%
c i 60.27 29 131 0 51 23011 19 241169 12088 2.6 22 9 1 4 27% 1630 101441 8073 22%
c i 60.34 29 131 0 51 23042 19 241943 12783 2.6 22 8 1 4 27% 1633 101441 8072 22%
c i 60.81 29 130 0 51 23305 19 246811 17288 2.6 22 9 1 4 27% 1644 101439 8071 22%
c - 60.82 29 130 0 52 23307 19 247199 14481 2.6 22 9 1 4 27% 1607 101439 8071 22%
c i 60.96 29 130 0 52 23406 19 248626 15742 2.6 22 9 1 4 27% 1613 101439 8070 22%
c i 61.04 29 130 0 52 23472 19 249266 16339 2.6 22 9 1 4 27% 1614 101439 8069 22%
c i 61.10 29 130 0 52 23506 19 249993 17013 2.6 22 9 1 4 27% 1617 101439 8068 22%
c - 61.42 29 129 0 53 23677 18 254411 17476 2.5 22 8 1 4 27% 1610 101437 8068 22%
c i 61.58 29 127 0 53 23751 18 256967 19753 2.5 21 8 1 4 27% 1618 101437 8067 22%
c i 61.66 29 127 0 53 23812 18 257493 20243 2.5 21 8 1 4 27% 1622 101437 8066 22%
c i 62.06 29 126 0 53 24101 18 261552 23943 2.5 21 8 1 4 26% 1630 101434 8064 22%
c - 62.07 29 126 0 54 24101 18 261691 19329 2.5 21 8 1 5 26% 1618 101434 8064 22%
c
c  seconds   switched      rate          size/glue tier1    binary         remaining
c         MB   reductions    conflicts         size  tier2     irredundant
c           level   restarts        redundant    glue   trail         variables
c
c i 62.16 29 126 0 54 24148 18 262458 20036 2.5 21 8 1 5 26% 1624 101432 8063 22%
c i 62.36 29 126 0 54 24304 17 264798 22193 2.5 21 8 1 5 26% 1631 101431 8062 22%
c - 62.54 30 124 0 55 24464 17 269039 20896 2.5 21 8 1 5 26% 1630 101431 8062 22%
c i 62.62 30 122 0 55 24560 17 271501 23004 2.5 21 8 1 5 26% 1639 101431 8061 22%
c i 62.66 30 122 0 55 24626 17 272426 23837 2.5 21 8 1 5 25% 1643 101430 8060 22%
c i 62.68 30 122 0 55 24669 17 272733 24085 2.5 21 8 1 5 25% 1651 101430 8059 22%
c i 62.68 30 122 0 55 24674 17 272849 24184 2.5 21 8 1 5 25% 1652 101430 8056 22%
c i 62.68 30 122 0 55 24676 17 272871 24202 2.5 21 8 1 5 25% 1652 101430 8055 22%
c i 62.68 30 121 0 55 24676 17 273162 24402 2.5 21 8 1 5 25% 1661 101429 8052 22%
c i 62.70 30 121 0 55 24705 17 273730 24902 2.5 21 8 1 5 25% 1666 101429 8051 22%
c i 62.70 30 121 0 55 24705 17 273744 24905 2.5 21 8 1 5 25% 1671 101428 8047 22%
c i 62.70 30 121 0 55 24705 17 273746 24905 2.5 21 8 1 5 25% 1672 101428 8043 22%
c i 62.70 30 121 0 55 24705 17 273747 24905 2.5 21 8 1 5 25% 1672 101428 8035 22%
c i 62.70 30 121 0 55 24705 17 273748 24905 2.5 21 8 1 5 25% 1672 101428 8032 22%
c } 62.70 30 121 0 55 24705 17 273755 24905 2.5 21 8 1 5 25% 1673 101428 8014 22%
c 0 62.70 30 121 0 55 24705 17 273755 24905 2.5 21 8 1 5 25% 1673 101428 8014 22%
c
c ---- [ result ] ------------------------------------------------------------
c
s UNSATISFIABLE
c
c ---- [ profiling ] ---------------------------------------------------------
c
c          44.27   70.60 %  search
c          44.27   70.60 %  focused
c          17.93   28.61 %  simplify
c          16.92   26.98 %  probe
c           8.40   13.39 %  sweep
c           5.68    9.06 %  vivify
c           1.29    2.06 %  eliminate
c           1.21    1.93 %  factor
c           0.71    1.13 %  congruence
c           0.68    1.08 %  substitute
c           0.44    0.69 %  preprocess
c           0.31    0.49 %  reduce
c           0.24    0.39 %  subsume
c           0.16    0.25 %  transitive
c           0.16    0.25 %  fastel
c           0.09    0.14 %  backbone
c           0.04    0.06 %  lucky
c           0.02    0.04 %  parse
c =============================================
c          62.70  100.00 %  total
c
c ---- [ statistics ] --------------------------------------------------------
c
c chronological:                         6002                2 %  conflicts
c conflicts:                           273755             4366.38 per second
c congruent:                             3835               10 %  variables
c decisions:                          5119988               18.70 per conflict
c eliminated:                           22380               61 %  variables
c factored:                              4072               11 %  variables
c fast_eliminated:                      11241               50 %  eliminated
c fast_strengthened:                        8                0 %  per strengthened
c fast_subsumed:                           66                0 %  per subsumed
c iterations:                              31                0 %  variables
c propagations:                     212659451          3391912    per second
c reductions:                              55             4977    interval
c reordered:                                7            39108    interval
c restarts:                             24705               11    interval
c strengthened:                          9449                0 %  checks
c substituted:                          10178               28 %  variables
c subsumed:                             15866                0 %  checks
c switched:                                 0                0    interval
c vivified:                            105691               14 %  checks
c
c ---- [ glue usage ] --------------------------------------------------------
c
c focused glue 1 used 499352 clauses 61.69% accumulated 61.69% tier1
c focused glue 2 used 148591 clauses 18.36% accumulated 80.04%
c focused glue 3 used  49409 clauses  6.10% accumulated 86.15%
c focused glue 4 used  28638 clauses  3.54% accumulated 89.69%
c focused glue 5 used  17909 clauses  2.21% accumulated 91.90% tier2
c
c ---- [ resources ] ---------------------------------------------------------
c
c maximum-resident-set-size:         31186944 bytes         30 MB
c process-time:                          1m 3s              62.70 seconds
c
c ---- [ shutting down ] -----------------------------------------------------
c
c exit 20
